{"lblp_lower": [488.7061994000918, 535.8421162529561, 587.653710441401, 650.0072982676784, 672.9445276272662, 680.7688571879297, 682.1979568577894], "cuttingPlaneBendInfo": [{"tot_cut_value": 0, "TOT_gen_cut": 0, "tot_time_opt": 0, "max_time_opt": 0}, {"tot_cut_value": 0, "TOT_gen_cut": 0, "tot_time_opt": 0, "max_time_opt": 0}, {"tot_cut_value": 0, "TOT_gen_cut": 0, "tot_time_opt": 0, "max_time_opt": 0}, {"tot_cut_value": 0, "TOT_gen_cut": 0, "tot_time_opt": 0, "max_time_opt": 0}, {"tot_cut_value": 0, "TOT_gen_cut": 0, "tot_time_opt": 0, "max_time_opt": 0}, {"tot_cut_value": 0, "TOT_gen_cut": 0, "tot_time_opt": 0, "max_time_opt": 0}, {"tot_cut_value": 0, "TOT_gen_cut": 0, "tot_time_opt": 0, "max_time_opt": 0}], "time_compress": [0, 0, 0, 0, 0, 0, 0], "ub_lp": [898.0000000000001, 833.9011111111115, 702.140648648649, 685.5134995532112, 683.7551435765909, 682.618262019421, 682.237924197951], "prob_sizes_at_start": [{"timeGraph": 70, "ngGraph": 52}, {"timeGraph": 115, "ngGraph": 100}, {"timeGraph": 235, "ngGraph": 160}, {"timeGraph": 395, "ngGraph": 234}, {"timeGraph": 532, "ngGraph": 203}, {"timeGraph": 640, "ngGraph": 205}, {"timeGraph": 647, "ngGraph": 186}], "prob_sizes_after_compress": [{"timeGraph": 9, "ngGraph": 34}, {"timeGraph": 43, "ngGraph": 46}, {"timeGraph": 158, "ngGraph": 43}, {"timeGraph": 262, "ngGraph": 47}, {"timeGraph": 344, "ngGraph": 39}, {"timeGraph": 339, "ngGraph": 31}, {"timeGraph": 334, "ngGraph": 43}], "prob_sizes_after_split": [{"timeGraph": 115, "ngGraph": 100}, {"timeGraph": 235, "ngGraph": 160}, {"timeGraph": 395, "ngGraph": 234}, {"timeGraph": 532, "ngGraph": 203}, {"timeGraph": 640, "ngGraph": 205}, {"timeGraph": 647, "ngGraph": 186}, {"timeGraph": 368, "ngGraph": 85}], "did_compress": [true, true, true, true, true, true, true], "lp_time_project": [1.9329540729522705, 0.5401201248168945, 0.9478089809417725, 0.8862311840057373, 0.843621015548706, 0.8516643047332764, 0.7265958786010742], "lp_time_LB": [0.15503883361816406, 0.10765290260314941, 0.2501220703125, 0.44336581230163574, 1.736877202987671, 0.6073131561279297, 0.31989598274230957], "ilp_time": [], "history_of_graphs_by_iter": [], "ROOT_LP_PRIOR_ADDING_CUTS": 682.1979568577894, "OUR_ilp_objective": 697.0, "OUR_MIP_Lower_Bound": 697.0, "OUR_ilp_time": 3.4809930324554443, "OUR_gurobi_MILP_str": "Gurobi Optimizer version 12.0.1 build v12.0.1rc0 (mac64[arm] - Darwin 24.5.0 24F74)\n\nCPU model: Apple M1\nThread count: 8 physical cores, 8 logical processors, using up to 8 threads\n\nNon-default parameters:\nTimeLimit  3000\n\nWLS license 2690165 - registered to Optym\nOptimize a model with 9758 rows, 9464 columns and 47150 nonzeros\nModel fingerprint: 0xabd94c6f\nVariable types: 102 continuous, 9362 integer (3258 binary)\nCoefficient statistics:\n  Matrix range     [9e-01, 2e+02]\n  Objective range  [4e+00, 8e+01]\n  Bounds range     [1e-01, 2e+02]\n  RHS range        [1e+00, 2e+02]\nUsing branch priorities.\nPresolve removed 7475 rows and 3671 columns\nPresolve time: 0.05s\nPresolved: 2283 rows, 5793 columns, 20729 nonzeros\nVariable types: 100 continuous, 5693 integer (5359 binary)\nFound heuristic solution: objective 1678.6000000\n\nRoot relaxation: objective 6.821980e+02, 4763 iterations, 0.23 seconds (0.35 work units)\n\n    Nodes    |    Current Node    |     Objective Bounds      |     Work\n Expl Unexpl |  Obj  Depth IntInf | Incumbent    BestBd   Gap | It/Node Time\n\n     0     0  682.19796    0  345 1678.60000  682.19796  59.4%     -    0s\nH    0     0                     919.3000000  682.19796  25.8%     -    0s\nH    0     0                     900.8000000  682.19796  24.3%     -    0s\nH    0     0                     894.5000000  682.19796  23.7%     -    0s\nH    0     0                     890.3000000  682.19796  23.4%     -    0s\nH    0     0                     888.3000000  682.19796  23.2%     -    0s\nH    0     0                     870.9000000  682.19796  21.7%     -    0s\nH    0     0                     807.8000000  682.19796  15.5%     -    0s\n     0     0  683.79012    0  333  807.80000  683.79012  15.4%     -    0s\n     0     0  683.79012    0  333  807.80000  683.79012  15.4%     -    0s\nH    0     0                     747.6000000  685.06110  8.37%     -    0s\n     0     0  685.06110    0  416  747.60000  685.06110  8.37%     -    0s\nH    0     0                     747.5000000  685.08625  8.35%     -    0s\n     0     0  685.43414    0  419  747.50000  685.43414  8.30%     -    0s\n     0     0  685.44129    0  413  747.50000  685.44129  8.30%     -    0s\n     0     0  685.44129    0  413  747.50000  685.44129  8.30%     -    0s\n     0     0  687.30358    0  446  747.50000  687.30358  8.05%     -    1s\nH    0     0                     734.2000000  687.33010  6.38%     -    1s\n     0     0  687.33010    0  443  734.20000  687.33010  6.38%     -    1s\n     0     0  687.34315    0  455  734.20000  687.34315  6.38%     -    1s\n     0     0  687.34315    0  455  734.20000  687.34315  6.38%     -    1s\nH    0     0                     730.7000000  687.34315  5.93%     -    1s\n     0     0  688.45191    0  462  730.70000  688.45191  5.78%     -    1s\n     0     0  688.50052    0  457  730.70000  688.50052  5.78%     -    1s\n     0     0  688.50976    0  467  730.70000  688.50976  5.77%     -    1s\n     0     0  688.50976    0  467  730.70000  688.50976  5.77%     -    1s\n     0     0  688.75337    0  486  730.70000  688.75337  5.74%     -    1s\n     0     0  688.76770    0  491  730.70000  688.76770  5.74%     -    1s\n     0     0  688.76823    0  496  730.70000  688.76823  5.74%     -    1s\n     0     0  688.83867    0  493  730.70000  688.83867  5.73%     -    1s\n     0     0  688.84864    0  494  730.70000  688.84864  5.73%     -    1s\n     0     0  688.93903    0  531  730.70000  688.93903  5.72%     -    1s\n     0     0  688.94623    0  534  730.70000  688.94623  5.71%     -    1s\n     0     0  688.94858    0  532  730.70000  688.94858  5.71%     -    1s\n     0     0  688.97562    0  536  730.70000  688.97562  5.71%     -    2s\n     0     0  688.97633    0  529  730.70000  688.97633  5.71%     -    2s\n     0     2  689.00316    0  527  730.70000  689.00316  5.71%     -    2s\nH   40    46                     725.9000000  689.98445  4.95%   255    2s\nH   41    46                     702.0000000  689.98445  1.71%   256    2s\nH  112    76                     697.3000000  689.98445  1.05%   196    3s\nH  113    76                     697.2000000  689.98445  1.03%   197    3s\n*  213    93              21     697.0000000  691.20572  0.83%   157    3s\n\nCutting planes:\n  Gomory: 8\n  Implied bound: 91\n  Clique: 3\n  MIR: 76\n  Zero half: 97\n  RLT: 24\n  Relax-and-lift: 39\n  BQP: 4\n  PSD: 17\n\nExplored 353 nodes (48590 simplex iterations) in 3.48 seconds (4.83 work units)\nThread count was 8 (of 8 available processors)\n\nSolution count 10: 697 697.2 697.3 ... 807.8\n\nOptimal solution found (tolerance 1.00e-04)\nBest objective 6.970000000000e+02, best bound 6.970000000000e+02, gap 0.0000%\n", "jy_opt": {"ParetoEps": 1e-05, "turn_off_time_windows": false, "deactivate_time_graph": false, "deactivate_demand_graph": false, "epsilon": 0.0001, "weight_slack_projector": 1e-05, "weight_compress": 0.01, "num_cust_use": 50, "dem_step_sz": 1, "time_step_sz": 1, "use_compression": 1, "max_iterations_loop_compress_project": 50, "do_round_dist_times": 1, "my_shift_bet_time_win": 0.0001, "num_terms_per_bin_init_construct": 100, "allOneBig_init": 0, "min_inc_2_compress": 1e-05, "save_graph_each_iter": 0, "use_Xpress": 0, "use_ineq": false, "xpress_file_loc": "/Users/julian/Documents/FICO_Xpress_Config/xpauth.xpr", "run_baseline": 0, "verbose": 0, "use_NG_graph": 1, "num_NG": 9, "in_demo_mode": 0, "threshold_split": 0.1, "offset_cost_edge_project": 0, "use_classic_compress": 1, "use_classic_compress_last": 1, "num_thresh_split_projector": 1000, "lplb_solver": 4, "compresss_solver": 0, "proj_solver": 4, "use_julians_custom_lp_solver": 0, "do_ilp": 1, "roundingDiscretization_num_digits_keep": 3, "doExrtraRemovalEdgesLB": 0, "use_gurobi": 1, "max_ILP_time": 3000, "use_fancy_ng_graph": 1, "use_dem_graph": 0, "use_time_graph": 1, "num_multiplys_demand": 0, "DEBUG_ALLOW_DUMB_EDGES": 0, "add_all_ng_split_at_end": 0, "do_split_based_init": 0, "think_compress": [0], "use_delta_in_milp": 1, "use_delta_in_lp": 1, "turn_off_non_active_fg_project": 0, "use_new_valid_ineq": 0, "digit_mult_use": 10, "use_branch_on_g": true, "LAB_MP_ON": 0, "LAB_MP_neigh_use_power": 9, "LAB_MP_num_ineq_use": 10, "do_remove_actions_from_incumbant": true, "ub_use_remove": 697.0, "use_packing_in_construction": 1, "maxVarsAdd_in_ITER": 10, "use_ng_size_init": 0, "do_presolve": 0, "use_diving_ineq": 1, "BEND_MIN_LP_OBJECTIVE_CUT": 0.1, "BEND_USE_RAND": 0, "BEND_MAX_SIZE_CHOOSE_K": 230, "BEND_VAL_STOP_ADDING_CUTS": 100000000, "BEND_MY_SIZES_USE": [9], "NUMERICAL_BEND_OFFSET_COST_CUT": 0.0001, "NUMERICAL_BEND_EPSILON_MULT_PARETO_OBJ": 0.001, "NO_PARETO_NUMERICAL_BEND_OFFSET_COST_CUT": 0, "NO_PARETO_BEND_VAL_STOP_ADDING_CUTS": 1, "NO_PARETO_EPSILON_MAX_VAL_CON": 0.01, "BENDERS_NEIGH_SZ_USE": 9, "Actions_of_given_sol": [], "all_vars_binary": 1, "restore_after_each_step": 1, "use_ng": 1, "compress_solver": 1, "DEBUG_NG_turn_off_CLEAN": false, "max_nodes_split": Infinity}, "output_ilp_solution": {"delta_capRem_0": 1.0, "delta_timeRem_0": 29.0, "delta_capRem_1": 13.5, "delta_timeRem_1": 198.4, "delta_capRem_2": 2.6, "delta_timeRem_2": 105.9, "delta_capRem_3": 1.9, "delta_timeRem_3": 35.0, "delta_capRem_4": 20.0, "delta_timeRem_4": 209.4, "delta_capRem_5": 5.0, "delta_timeRem_5": 173.9, "delta_capRem_6": 8.4, "delta_timeRem_6": 153.1, "delta_capRem_7": 3.5, "delta_timeRem_7": 132.4, "delta_capRem_8": 18.9, "delta_timeRem_8": 169.5, "delta_capRem_9": 7.9, "delta_timeRem_9": 129.0, "delta_capRem_10": 17.3, "delta_timeRem_10": 178.0, "delta_capRem_11": 18.4, "delta_timeRem_11": 157.6, "delta_capRem_12": 2.3, "delta_timeRem_12": 33.7, "delta_capRem_13": 12.1, "delta_timeRem_13": 118.1, "delta_capRem_14": 3.6, "delta_timeRem_14": 77.2, "delta_capRem_15": 17.4, "delta_timeRem_15": 176.0, "delta_capRem_16": 1.0, "delta_timeRem_16": 98.0, "delta_capRem_17": 4.7, "delta_timeRem_17": 152.8, "delta_capRem_18": 16.1, "delta_timeRem_18": 161.0, "delta_capRem_19": 4.2, "delta_timeRem_19": 92.0, "delta_capRem_20": 11.9, "delta_timeRem_20": 162.0, "delta_capRem_21": 10.8, "delta_timeRem_21": 142.0, "delta_capRem_22": 8.5, "delta_timeRem_22": 93.0, "delta_capRem_23": 15.6, "delta_timeRem_23": 112.0, "delta_capRem_24": 2.5, "delta_timeRem_24": 55.0, "delta_capRem_25": 1.7, "delta_timeRem_25": 74.0, "delta_capRem_26": 10.0, "delta_timeRem_26": 181.1, "delta_capRem_27": 20.0, "delta_timeRem_27": 176.8, "delta_capRem_28": 16.5, "delta_timeRem_28": 132.0, "delta_capRem_29": 6.3, "delta_timeRem_29": 109.0, "delta_capRem_30": 20.0, "delta_timeRem_30": 205.0, "delta_capRem_31": 3.3, "delta_timeRem_31": 71.3, "delta_capRem_32": 20.0, "delta_timeRem_32": 205.3, "delta_capRem_33": 4.0, "delta_timeRem_33": 130.0, "delta_capRem_34": 4.8, "delta_timeRem_34": 150.1, "delta_capRem_35": 8.7, "delta_timeRem_35": 102.0, "delta_capRem_36": 0.8, "delta_timeRem_36": 70.0, "delta_capRem_37": 13.7, "delta_timeRem_37": 139.2, "delta_capRem_38": 5.6, "delta_timeRem_38": 74.4, "delta_capRem_39": 12.8, "delta_timeRem_39": 179.0, "delta_capRem_40": 9.0, "delta_timeRem_40": 127.8, "delta_capRem_41": 2.8, "delta_timeRem_41": 58.0, "delta_capRem_42": 4.3, "delta_timeRem_42": 97.5, "delta_capRem_43": 15.5, "delta_timeRem_43": 160.0, "delta_capRem_44": 2.6, "delta_timeRem_44": 116.0, "delta_capRem_45": 8.2, "delta_timeRem_45": 80.0, "delta_capRem_46": 14.4, "delta_timeRem_46": 143.0, "delta_capRem_47": 3.6, "delta_timeRem_47": 58.3, "delta_capRem_48": 11.7, "delta_timeRem_48": 120.9, "delta_capRem_49": 1.3, "delta_timeRem_49": 78.0, "act_0_51": 1, "act_1_39": 1, "act_2_49": 1, "act_3_51": 1, "act_4_15": 1, "act_5_17": 1, "act_6_9": 1, "act_7_44": 1, "act_8_34": 1, "act_9_29": 1, "act_10_18": 1, "act_11_28": 1, "act_12_51": 1, "act_13_42": 1, "act_14_41": 1, "act_15_43": 1, "act_16_36": 1, "act_17_7": 1, "act_18_46": 1, "act_19_31": 1, "act_20_21": 1, "act_21_40": 1, "act_22_38": 1, "act_23_25": 1, "act_24_3": 1, "act_25_51": 1, "act_26_6": 1, "act_27_11": 1, "act_28_23": 1, "act_29_19": 1, "act_30_10": 1, "act_31_0": 1, "act_32_8": 1, "act_33_2": 1, "act_34_33": 1, "act_35_45": 1, "act_36_51": 1, "act_37_13": 1, "act_38_24": 1, "act_39_20": 1, "act_40_22": 1, "act_41_12": 1, "act_42_14": 1, "act_43_37": 1, "act_44_16": 1, "act_45_47": 1, "act_46_48": 1, "act_47_51": 1, "act_48_35": 1, "act_49_51": 1, "act_50_1": 1, "act_50_4": 1, "act_50_5": 1, "act_50_26": 1, "act_50_27": 1, "act_50_30": 1, "act_50_32": 1}, "Actions_of_given_sol": "none just used source and sink terms", "actions_used": ["act_0_51", "act_1_39", "act_2_49", "act_3_51", "act_4_15", "act_5_17", "act_6_9", "act_7_44", "act_8_34", "act_9_29", "act_10_18", "act_11_28", "act_12_51", "act_13_42", "act_14_41", "act_15_43", "act_16_36", "act_17_7", "act_18_46", "act_19_31", "act_20_21", "act_21_40", "act_22_38", "act_23_25", "act_24_3", "act_25_51", "act_26_6", "act_27_11", "act_28_23", "act_29_19", "act_30_10", "act_31_0", "act_32_8", "act_33_2", "act_34_33", "act_35_45", "act_36_51", "act_37_13", "act_38_24", "act_39_20", "act_40_22", "act_41_12", "act_42_14", "act_43_37", "act_44_16", "act_45_47", "act_46_48", "act_47_51", "act_48_35", "act_49_51", "act_50_1", "act_50_4", "act_50_5", "act_50_26", "act_50_27", "act_50_30", "act_50_32"], "init_default_solution_is_empty": false, "objective_of_initial_sol": 2620.8000000000006, "my_paths": "[[50, 1, 39, 20, 21, 40, 22, 38, 24, 3, 51], [50, 4, 15, 43, 37, 13, 42, 14, 41, 12, 51], [50, 5, 17, 7, 44, 16, 36, 51], [50, 26, 6, 9, 29, 19, 31, 0, 51], [50, 27, 11, 28, 23, 25, 51], [50, 30, 10, 18, 46, 48, 35, 45, 47, 51], [50, 32, 8, 34, 33, 2, 49, 51]]"}